# Solution for model GasLib-40
# Objective value = 4.5269587761431005e+01
loadshed[innode_1] 0
loadshed[innode_2] 0
loadshed[innode_3] 0
loadshed[innode_4] 0
loadshed[innode_5] 0
loadshed[innode_6] 0
loadshed[innode_7] 0
loadshed[innode_8] 0
loadshed[source_1] -1.1893808114553228e-01
loadshed[source_2] 4.2730524489832833e-02
loadshed[source_3] 3.6256031912635422e-01
loadshed[sink_1] 0
loadshed[sink_2] 0
loadshed[sink_3] 0
loadshed[sink_4] 0
loadshed[sink_5] 0
loadshed[sink_6] 0
loadshed[sink_7] 0
loadshed[sink_8] 0
loadshed[sink_9] 0
loadshed[sink_10] 0
loadshed[sink_11] 0
loadshed[sink_12] 1
loadshed[sink_13] 0
loadshed[sink_14] 0
loadshed[sink_15] 0
loadshed[sink_16] 0
loadshed[sink_17] 0
loadshed[sink_18] 0
loadshed[sink_19] 0
loadshed[sink_20] 0
loadshed[sink_21] 1
loadshed[sink_22] 0
loadshed[sink_23] 0
loadshed[sink_24] 7.6807670388367910e-01
loadshed[sink_25] 0
loadshed[sink_26] 0
loadshed[sink_27] 0
loadshed[sink_28] 0
loadshed[sink_29] 0
flow[source_1,sink_3] 1.7689323206443083e+02
flow[innode_1,sink_16] 1.6354166666666970e+01
flow[innode_6,sink_13] 1.3706150450774610e+01
flow[sink_13,sink_14] -2.6480162158920582e+00
flow[sink_14,sink_10] -1.9002182882558827e+01
flow[sink_25,sink_26] 1.2825484546120893e+02
flow[sink_26,sink_9] 1.6354166666669244e+01
flow[sink_9,sink_18] 0
flow[sink_26,sink_4] 9.5546512127873029e+01
flow[sink_4,sink_20] -5.5433900110699142e+01
flow[sink_18,sink_6] -1.6354166666667879e+01
flow[sink_25,innode_8] -1.4418489873109445e+02
flow[sink_6,sink_7] -6.5416666666666671e+01
flow[sink_6,sink_22] 3.2708333333333641e+01
flow[sink_7,sink_24] 3.7929122385689991e+00
flow[sink_22,sink_1] 1.6354166666666970e+01
flow[sink_24,sink_21] 0
flow[sink_21,sink_12] 0
flow[sink_7,sink_5] -8.5563745571903851e+01
flow[sink_5,sink_17] -1.0191791223857052e+02
flow[sink_17,sink_4] -1.3462624557190543e+02
flow[sink_17,sink_8] 1.6354166666668334e+01
flow[sink_3,sink_23] 16.3541666666697
flow[sink_8,sink_20] 0
flow[sink_25,sink_20] 7.1788066777365685e+01
flow[sink_25,sink_15] -8.5918330624922049e+01
flow[sink_15,sink_29] -5.7672874059195259e+01
flow[sink_29,sink_28] 1.6354166666667879e+01
flow[sink_29,sink_2] 6.0953789899060141e+01
flow[sink_2,sink_15] 4.4599623232393469e+01
flow[sink_29,innode_7] -1.5133499729158996e+02
flow[innode_4,sink_19] 3.8299168255400524e+01
flow[sink_19,innode_3] 68.0646828825591
flow[innode_4,innode_5] 6.2473847960492165e+01
flow[sink_27,innode_5] -6.2473847960492165e+01
flow[sink_27,sink_19] 46.1196812938255
flow[sink_10,sink_11] 3.2708333333333641e+01
flow[sink_10,innode_2] 0
flow[sink_10,innode_3] -68.0646828825591
flow[innode_6,sink_25] -1.3706150450774610e+01
flow[sink_11,innode_1] 1.6354166666666970e+01
flow[sink_19,innode_2] 0
flow[source_3,innode_4] 1.0077301621589268e+02
flow[source_2,innode_7] 1.5133499729158996e+02
flow[sink_3,innode_8] 1.4418489873109445e+02
pressure[innode_1] 75.5354622180272
pressure[innode_2] 7.5687163525630751e+01
pressure[innode_3] 79.3109315743826
pressure[innode_4] 81.01325
pressure[innode_5] 8.0970277193116573e+01
pressure[innode_6] 7.4859207823469944e+01
pressure[innode_7] 81.01325
pressure[innode_8] 8.0421963500872607e+01
pressure[source_1] 81.01325
pressure[source_2] 81.01325
pressure[source_3] 81.01325
pressure[sink_1] 2.3567593849365647e+00
pressure[sink_2] 7.5421603387953283e+01
pressure[sink_3] 8.0421963500872607e+01
pressure[sink_4] 53.6782635401804
pressure[sink_5] 4.0941144572800233e+01
pressure[sink_6] 4.4578369953239383e+00
pressure[sink_7] 5.3558518989241284e+00
pressure[sink_8] 4.7916207155331264e+01
pressure[sink_9] 64.8474552935884
pressure[sink_10] 7.5687163525630751e+01
pressure[sink_11] 75.5354622180272
pressure[sink_12] 1.01325
pressure[sink_13] 7.4783648106545343e+01
pressure[sink_14] 7.4788386957124786e+01
pressure[sink_15] 7.5275995447698151e+01
pressure[sink_16] 7.4513812383209526e+01
pressure[sink_17] 4.8533292350744887e+01
pressure[sink_18] 4.0211320525706986e+00
pressure[sink_19] 7.9461653107136812e+01
pressure[sink_20] 57.7451522058693
pressure[sink_21] 1.01325
pressure[sink_22] 3.4205285272915749e+00
pressure[sink_23] 8.0257245489212821e+01
pressure[sink_24] 1.01325
pressure[sink_25] 7.4859207823469944e+01
pressure[sink_26] 6.5826294377530814e+01
pressure[sink_27] 8.0451859694303025e+01
pressure[sink_28] 7.6670349403003542e+01
pressure[sink_29] 7.6965631676620731e+01
interdiction[source_1,sink_3] 0
interdiction[innode_1,sink_16] 0
interdiction[innode_6,sink_13] 0
interdiction[sink_13,sink_14] 0
interdiction[sink_14,sink_10] 0
interdiction[sink_25,sink_26] 0
interdiction[sink_26,sink_9] 0
interdiction[sink_9,sink_18] 1
interdiction[sink_26,sink_4] 0
interdiction[sink_4,sink_20] 0
interdiction[sink_18,sink_6] 0
interdiction[sink_25,innode_8] 0
interdiction[sink_6,sink_7] 0
interdiction[sink_6,sink_22] 0
interdiction[sink_7,sink_24] 0
interdiction[sink_22,sink_1] 0
interdiction[sink_24,sink_21] 0
interdiction[sink_21,sink_12] 0
interdiction[sink_7,sink_5] 0
interdiction[sink_5,sink_17] 0
interdiction[sink_17,sink_4] 0
interdiction[sink_17,sink_8] 0
interdiction[sink_3,sink_23] 0
interdiction[sink_8,sink_20] 1
interdiction[sink_25,sink_20] 0
interdiction[sink_25,sink_15] 0
interdiction[sink_15,sink_29] 0
interdiction[sink_29,sink_28] 0
interdiction[sink_29,sink_2] 0
interdiction[sink_2,sink_15] 0
interdiction[sink_29,innode_7] 0
interdiction[innode_4,sink_19] 0
interdiction[sink_19,innode_3] 0
interdiction[innode_4,innode_5] 0
interdiction[sink_27,innode_5] 0
interdiction[sink_27,sink_19] 0
interdiction[sink_10,sink_11] 0
interdiction[sink_10,innode_2] 0
interdiction[sink_10,innode_3] 0
interdiction[innode_6,sink_25] 0
interdiction[sink_11,innode_1] 0
interdiction[sink_19,innode_2] 1
interdiction[source_3,innode_4] 0
interdiction[source_2,innode_7] 0
interdiction[sink_3,innode_8] 0
WCcheckFlow[source_1,sink_3] 39
WCcheckFlow[innode_1,sink_16] 1
WCcheckFlow[innode_6,sink_13] 13
WCcheckFlow[sink_13,sink_14] 12
WCcheckFlow[sink_14,sink_10] 11
WCcheckFlow[sink_25,sink_26] 15
WCcheckFlow[sink_26,sink_9] 1
WCcheckFlow[sink_9,sink_18] 0
WCcheckFlow[sink_26,sink_4] 13
WCcheckFlow[sink_4,sink_20] 1
WCcheckFlow[sink_18,sink_6] -1
WCcheckFlow[sink_25,innode_8] -36
WCcheckFlow[sink_6,sink_7] -4
WCcheckFlow[sink_6,sink_22] 2
WCcheckFlow[sink_7,sink_24] 3
WCcheckFlow[sink_22,sink_1] 1
WCcheckFlow[sink_24,sink_21] 2
WCcheckFlow[sink_21,sink_12] 1
WCcheckFlow[sink_7,sink_5] -8
WCcheckFlow[sink_5,sink_17] -9
WCcheckFlow[sink_17,sink_4] -11
WCcheckFlow[sink_17,sink_8] 1
WCcheckFlow[sink_3,sink_23] 1
WCcheckFlow[sink_8,sink_20] 0
WCcheckFlow[sink_25,sink_20] 0
WCcheckFlow[sink_25,sink_15] 6
WCcheckFlow[sink_15,sink_29] 5
WCcheckFlow[sink_29,sink_28] 1
WCcheckFlow[sink_29,sink_2] 1
WCcheckFlow[sink_2,sink_15] 0
WCcheckFlow[sink_29,innode_7] 2
WCcheckFlow[innode_4,sink_19] -4
WCcheckFlow[sink_19,innode_3] -5
WCcheckFlow[innode_4,innode_5] 2
WCcheckFlow[sink_27,innode_5] -1
WCcheckFlow[sink_27,sink_19] 0
WCcheckFlow[sink_10,sink_11] 3
WCcheckFlow[sink_10,innode_2] 1
WCcheckFlow[sink_10,innode_3] 6
WCcheckFlow[innode_6,sink_25] -14
WCcheckFlow[sink_11,innode_1] 2
WCcheckFlow[sink_19,innode_2] 0
WCcheckFlow[source_3,innode_4] -1
WCcheckFlow[source_2,innode_7] -1
WCcheckFlow[sink_3,innode_8] 37
